nPeces = 10;

durada = [45,30,25,40,20,10,40,45,45,45];

nInstruments = 3;

requereix = [| 0, 2, 2,
| 0, 2, 3,
| 0, 1, 3, 
| 3, 1, 0,
| 2, 0, 0,
| 0, 2, 0, 
| 3, 0, 0,
| 0, 2, 2,
| 3, 0, 1,
| 2, 0, 0,
|];

nMusics = 8;

saptocar = [| true, false, true, 
| true, true, true, 
| true, true, false, 
| false, false, true,
| true, false, true,  
| false, false, true, 
| false, true, false,
| true, false, false, 
|];

pressupost = 2022;

salari = [3,3,2,2,2,2,2,2];

nPrecs = 12;
pred = [1,1,1,2,2,3,3,4,4,5,6,9];
succ = [2,4,3,6,7,4,7,8,5,7,9,10];

